decision_x1=[0,2];
decision_x2=[0,2];
decision_x3=[0,2];
decision_x4=[0,2];
decision_x5=[0,2];
random_y1=[0,2];
constraint_x2_x1=[
0,1,4.6|
0,2,1.7|
1,0,1.9|
1,2,1.1|
2,0,8|
2,1,6.1|
];
constraint_x3_x1=[
0,1,9.6|
0,2,4.2|
1,0,6.8|
1,2,4.4|
2,0,3.7|
2,1,6.5|
];
constraint_x4_x1=[
0,1,9.4|
0,2,9.4|
1,0,6.3|
1,2,3.6|
2,0,4.2|
2,1,3.3|
];
constraint_x4_x2=[
0,1,4.3|
0,2,5.4|
1,0,9.8|
1,2,4.9|
2,0,4.8|
2,1,3.7|
];
constraint_x5_x2=[
0,1,0.76|
0,2,7.8|
1,0,4.3|
1,2,6.5|
2,0,3.7|
2,1,8.2|
];
constraint_x1_y1=[
0,0,1.4|
0,1,5.9|
0,2,5.8|
1,0,4.7|
1,1,9.1|
1,2,3.9|
2,0,9|
2,1,9|
2,2,5|
];
initial_distribution_y1=[0.082,0.68,0.23];
transition_y1=[
0.41,0.47,0.12|
0.48,0.4,0.12|
0.41,0.2,0.4|
];
